data/medium_7.dzn
num_nodi = 7;
ufficio_postale = 5;
dim_borsa = 40;
max_step = 17;
elenco_lettere = [20, 18, 3, 1, 0, 0, 0];
distanze = [|0, 9, 21, 13, 4, 22, 25
|12, 0, 21, 9, 9, 13, 14
|13, 21, 0, 2, 7, 9, 2
|21, 3, 1, 0, 11, 9, 23
|8, 13, 10, 19, 0, 9, 18
|2, 11, 22, 24, 21, 0, 15
|17, 9, 1, 17, 24, 2, 0
|];
