data/medium_7.lp
node(1..7).

ufficio_postale(5).

dim_borsa(40).

time(1..17).

lettere(1,20).
lettere(2,18).
lettere(3,3).
lettere(4,1).
lettere(5,0).
lettere(6,0).
lettere(7,0).

costo_arco(1, 1, 0).
costo_arco(1, 2, 9).
costo_arco(1, 3, 21).
costo_arco(1, 4, 13).
costo_arco(1, 5, 4).
costo_arco(1, 6, 22).
costo_arco(1, 7, 25).

costo_arco(2, 1, 12).
costo_arco(2, 2, 0).
costo_arco(2, 3, 21).
costo_arco(2, 4, 9).
costo_arco(2, 5, 9).
costo_arco(2, 6, 13).
costo_arco(2, 7, 14).

costo_arco(3, 1, 13).
costo_arco(3, 2, 21).
costo_arco(3, 3, 0).
costo_arco(3, 4, 2).
costo_arco(3, 5, 7).
costo_arco(3, 6, 9).
costo_arco(3, 7, 2).

costo_arco(4, 1, 21).
costo_arco(4, 2, 3).
costo_arco(4, 3, 1).
costo_arco(4, 4, 0).
costo_arco(4, 5, 11).
costo_arco(4, 6, 9).
costo_arco(4, 7, 23).

costo_arco(5, 1, 8).
costo_arco(5, 2, 13).
costo_arco(5, 3, 10).
costo_arco(5, 4, 19).
costo_arco(5, 5, 0).
costo_arco(5, 6, 9).
costo_arco(5, 7, 18).

costo_arco(6, 1, 2).
costo_arco(6, 2, 11).
costo_arco(6, 3, 22).
costo_arco(6, 4, 24).
costo_arco(6, 5, 21).
costo_arco(6, 6, 0).
costo_arco(6, 7, 15).

costo_arco(7, 1, 17).
costo_arco(7, 2, 9).
costo_arco(7, 3, 1).
costo_arco(7, 4, 17).
costo_arco(7, 5, 24).
costo_arco(7, 6, 2).
costo_arco(7, 7, 0).

